85
210
162
26
0
55
0
101
68
66
139
108
111
88
70
50
53
41
400
41
53
24
86
41
113
44
44
336
170
93
71
37
356
85
182
36
86
39
56
411
72
228
305
88
76
29
34
206
131
23
84
54
145
158
48
44
168
54
26
80
67
122
85
369
24
944
133
101
27
36
190
71
167
113
97
263
34
0
37
0
100
49
49
100
31
46
72
36
48
22
34
94
198
0
47
73
125
33
51
0
